
Gurobi 8.1.1 (win64, Python) logging started 09/26/19 14:48:01

Academic license - for non-commercial use only

Gurobi 8.1.1 (win64, Python) logging started 08/20/20 23:24:26

Academic license - for non-commercial use only
